\ LP format - for model browsing. Use MPS format to capture full model detail.
Minimize
  290.9930154543387 x[0,1] + 794.0018312710164 x[0,2]
   + 628.7062892741252 x[0,3] + 850.0494347752532 x[0,4]
   + 806.3010169484456 x[0,5] + 881.9759098638978 x[0,6]
   + 972.8731834521121 x[0,7] + 991.2811948915838 x[0,8]
   + 437.0737584729612 x[0,9] + 1237.919733735935 x[0,10]
   + 512.5409796925513 x[1,2] + 341.8880126825907 x[1,3]
   + 564.4124767084799 x[1,4] + 515.311506988317 x[1,5]
   + 591.0256944238063 x[1,6] + 682.8768039571414 x[1,7]
   + 701.258258572444 x[1,8] + 457.1591933470562 x[1,9]
   + 946.943476952674 x[1,10] + 174.7875364231942 x[2,3]
   + 68.96557112066861 x[2,4] + 167.3527872157794 x[2,5]
   + 182.2396337887564 x[2,6] + 299.6398931310044 x[2,7]
   + 312.282084455082 x[2,8] + 882.9616951166189 x[2,9]
   + 492.0229184226012 x[2,10] + 222.538977235201 x[3,4]
   + 199.7585349309998 x[3,5] + 266.3042926270811 x[3,6]
   + 376.01162075719 x[3,7] + 393.2809007111861 x[3,8]
   + 713.5791793296975 x[3,9] + 620.5599377543507 x[3,10]
   + 139.4060091563127 x[4,5] + 127.0040535709781 x[4,6]
   + 238.6304162414334 x[4,7] + 249.6969418547422 x[4,8]
   + 912.4667991457077 x[4,9] + 423.3264635633982 x[4,10]
   + 77.17623802732474 x[5,6] + 176.353912315236 x[5,7]
   + 193.8216709335194 x[5,8] + 808.4719549446988 x[5,9]
   + 431.6532180158791 x[5,10] + 119.2585912478417 x[6,7]
   + 133.8837279088481 x[6,8] + 881.572332399955 x[6,9]
   + 356.7844894953424 x[6,10] + 18.41945311593626 x[7,8]
   + 926.3645130826059 x[7,9] + 273.0854138756092 x[7,10]
   + 943.1662130201299 x[8,9] + 255.228803572089 x[8,10]
   + 1195.772562347965 x[9,10]
Subject To
 R0: x[0,1] + x[0,2] + x[0,3] + x[0,4] + x[0,5] + x[0,6] + x[0,7] + x[0,8]
   + x[0,9] + x[0,10] = 2
 R1: x[0,1] + x[1,2] + x[1,3] + x[1,4] + x[1,5] + x[1,6] + x[1,7] + x[1,8]
   + x[1,9] + x[1,10] = 2
 R2: x[0,2] + x[1,2] + x[2,3] + x[2,4] + x[2,5] + x[2,6] + x[2,7] + x[2,8]
   + x[2,9] + x[2,10] = 2
 R3: x[0,3] + x[1,3] + x[2,3] + x[3,4] + x[3,5] + x[3,6] + x[3,7] + x[3,8]
   + x[3,9] + x[3,10] = 2
 R4: x[0,4] + x[1,4] + x[2,4] + x[3,4] + x[4,5] + x[4,6] + x[4,7] + x[4,8]
   + x[4,9] + x[4,10] = 2
 R5: x[0,5] + x[1,5] + x[2,5] + x[3,5] + x[4,5] + x[5,6] + x[5,7] + x[5,8]
   + x[5,9] + x[5,10] = 2
 R6: x[0,6] + x[1,6] + x[2,6] + x[3,6] + x[4,6] + x[5,6] + x[6,7] + x[6,8]
   + x[6,9] + x[6,10] = 2
 R7: x[0,7] + x[1,7] + x[2,7] + x[3,7] + x[4,7] + x[5,7] + x[6,7] + x[7,8]
   + x[7,9] + x[7,10] = 2
 R8: x[0,8] + x[1,8] + x[2,8] + x[3,8] + x[4,8] + x[5,8] + x[6,8] + x[7,8]
   + x[8,9] + x[8,10] = 2
 R9: x[0,9] + x[1,9] + x[2,9] + x[3,9] + x[4,9] + x[5,9] + x[6,9] + x[7,9]
   + x[8,9] + x[9,10] = 2
 R10: x[0,10] + x[1,10] + x[2,10] + x[3,10] + x[4,10] + x[5,10] + x[6,10]
   + x[7,10] + x[8,10] + x[9,10] = 2
Bounds
Binaries
 x[0,1] x[0,2] x[0,3] x[0,4] x[0,5] x[0,6] x[0,7] x[0,8] x[0,9] x[0,10]
 x[1,2] x[1,3] x[1,4] x[1,5] x[1,6] x[1,7] x[1,8] x[1,9] x[1,10] x[2,3]
 x[2,4] x[2,5] x[2,6] x[2,7] x[2,8] x[2,9] x[2,10] x[3,4] x[3,5] x[3,6]
 x[3,7] x[3,8] x[3,9] x[3,10] x[4,5] x[4,6] x[4,7] x[4,8] x[4,9] x[4,10]
 x[5,6] x[5,7] x[5,8] x[5,9] x[5,10] x[6,7] x[6,8] x[6,9] x[6,10] x[7,8]
 x[7,9] x[7,10] x[8,9] x[8,10] x[9,10]
End
